
;this file is automatically generated: Thu Jan 02 16:54:47 GMT 2020

;declarations generated

(declare-fun oclExcludes ( Int Int) Bool)
(declare-fun obj_1dd6c6d2_1cb9_4a2c_89fc_a47793a2695c ( Int) Int)
(declare-fun Cardinality ( Int) Int)
(declare-fun class53_Class53IntAttr1 ( Int) Int)
(declare-fun oclSelect ( Int Bool) Int)
(declare-fun type_da3efe1c_3ae7_40dc_86fe_610b41984a98_Class53 ( Int) Bool)
(declare-fun Enum0 ( Int) Int)
(declare-fun Enum1 ( Int) Int)
(declare-fun Enum2 ( Int) Int)
(declare-fun container_ ( Int) Int)
(declare-fun type_da3efe1c_3ae7_40dc_86fe_610b41984a98_Class2 ( Int) Bool)
(declare-fun oclIncludes ( Int Int) Bool)
(declare-fun ObjAt ( Int Int) Int)

;formula(s) generated
(assert (! (forall ((v Int)) (=> (and ( type_da3efe1c_3ae7_40dc_86fe_610b41984a98_Class53 v )  ( type_da3efe1c_3ae7_40dc_86fe_610b41984a98_Class2 v ) ) (<= ( class53_Class53IntAttr1 ( obj_1dd6c6d2_1cb9_4a2c_89fc_a47793a2695c v )  )  13))):named l0))
(assert (exists ((o Int)) (and ( type_da3efe1c_3ae7_40dc_86fe_610b41984a98_Class53 ( obj_1dd6c6d2_1cb9_4a2c_89fc_a47793a2695c o )  )  ( type_da3efe1c_3ae7_40dc_86fe_610b41984a98_Class2 ( obj_1dd6c6d2_1cb9_4a2c_89fc_a47793a2695c o )  ) )))

 ;end of formula 